Route #1: 15 45 33 39 30 34 21 29 50 9 10 49
Route #2: 17 37 44 42 19 40 41 13 25 14
Route #3: 1 22 20 35 36 3 28 31 26 7 43 24
Route #4: 47 4 18
Route #5: 27 8 48 23 6
Route #6: 32 11 2 16 38 5 12 46
Cost 584.6372084179404